25 50
1 2 3
1 6 3
2 3 3
2 7 1
3 4 5
3 8 5
4 5 1
4 9 5
5 10 2
6 7 2
6 11 1
7 8 1
7 12 3
8 9 3
8 13 2
9 10 4
9 14 5
10 15 1
11 12 3
11 16 1
12 13 1
12 17 5
13 14 3
13 18 3
14 15 3
14 19 2
15 20 5
16 17 3
16 21 2
17 18 1
17 22 4
18 19 2
18 23 5
19 20 2
19 24 2
20 25 3
21 22 2
22 23 4
23 24 5
24 25 2
1 21 5
2 22 2
3 23 3
4 24 2
5 25 4
1 5 3
6 10 1
11 15 3
16 20 3
21 25 2
